 vasp.5.3.5 31Mar14 (build Jan 09 2015 16:57:47) complex

 INCAR:
 POTCAR:    PAW_PBE Ag 02Apr2005
 POTCAR:    PAW_PBE Ag 02Apr2005
   VRHFIN =Ag : s1 d10

   TITEL  = PAW_PBE Ag 02Apr2005
   POMASS =  107.868; ZVAL   =   11.000    mass and valenz
   ENMAX  =  249.844; ENMIN  =  187.383 eV

  PAW_PBE Ag 02Apr2005                  :

 POSCAR: Ag
  positions in cartesian coordinates
 exchange correlation table for  LEXCH =        8
   RHO(1)=    0.500       N(1)  =     2000
   RHO(2)=  100.500       N(2)  =     4000

 VTST: version 3.1, (03/28/14)

 CHAIN: initializing optimizer

 OPT: Using VASP Conjugate-Gradient optimizer
 CHAIN: Read ICHAIN            0

 POSCAR: Ag
  positions in cartesian coordinates

 ion  position               nearest neighbor table
   1  0.000  0.000  0.000-

  LATTYP: Found a face centered cubic cell.
 ALAT       =     4.1718000000

  Lattice vectors:

 A1 = (   2.9499080698,   0.0000000000,   0.0000000000)
 A2 = (   1.4749540349,   2.5546953272,   0.0000000000)
 A3 = (   1.4749540349,   0.8515651091,   2.4085898530)

Analysis of symmetry for initial positions (statically):
 Subroutine PRICEL returns:
 Original cell was already a primitive cell.

 Routine SETGRP: Setting up the symmetry group for a
 face centered cubic supercell.

 Subroutine GETGRP returns: Found 48 space group operations
 (whereof 48 operations were pure point group operations)
 out of a pool of 48 trial point group operations.

The static configuration has the point symmetry O_h .

Analysis of symmetry for dynamics (positions and initial velocities):
 Subroutine PRICEL returns:
 Original cell was already a primitive cell.

 Routine SETGRP: Setting up the symmetry group for a
 face centered cubic supercell.

 Subroutine GETGRP returns: Found 48 space group operations
 (whereof 48 operations were pure point group operations)
 out of a pool of 48 trial point group operations.

The dynamic configuration has the point symmetry O_h .

 KPOINTS: KPOINTS created by Atomic Simulation Env

Automatic generation of k-mesh.
Space group operators:
 irot       det(A)        alpha          n_x          n_y          n_z        tau_x        tau_y        tau_z
    1     1.000000     0.000000     1.000000     0.000000     0.000000     0.000000     0.000000     0.000000
    2    -1.000000     0.000000     1.000000     0.000000     0.000000     0.000000     0.000000     0.000000
    3     1.000000   120.000000    -0.816497    -0.471405    -0.333333     0.000000     0.000000     0.000000
    4    -1.000000   120.000000    -0.816497    -0.471405    -0.333333     0.000000     0.000000     0.000000
    5     1.000000   120.000000     0.816497     0.471405     0.333333     0.000000     0.000000     0.000000
    6    -1.000000   120.000000     0.816497     0.471405     0.333333     0.000000     0.000000     0.000000
    7     1.000000    90.000000    -0.707107    -0.408248     0.577350     0.000000     0.000000     0.000000
    8    -1.000000    90.000000    -0.707107    -0.408248     0.577350     0.000000     0.000000     0.000000
    9     1.000000   180.000000     1.000000     0.000000     0.000000     0.000000     0.000000     0.000000
   10    -1.000000   180.000000     1.000000     0.000000     0.000000     0.000000     0.000000     0.000000
   11     1.000000    90.000000     0.707107    -0.408248     0.577350     0.000000     0.000000     0.000000
   12    -1.000000    90.000000     0.707107    -0.408248     0.577350     0.000000     0.000000     0.000000
   13     1.000000   180.000000     0.707107     0.408248    -0.577350     0.000000     0.000000     0.000000
   14    -1.000000   180.000000     0.707107     0.408248    -0.577350     0.000000     0.000000     0.000000
   15     1.000000   120.000000     0.816497    -0.471405    -0.333333     0.000000     0.000000     0.000000
   16    -1.000000   120.000000     0.816497    -0.471405    -0.333333     0.000000     0.000000     0.000000
   17     1.000000   120.000000     0.000000    -0.942809     0.333333     0.000000     0.000000     0.000000
   18    -1.000000   120.000000     0.000000    -0.942809     0.333333     0.000000     0.000000     0.000000
   19     1.000000    90.000000     0.707107     0.408248    -0.577350     0.000000     0.000000     0.000000
   20    -1.000000    90.000000     0.707107     0.408248    -0.577350     0.000000     0.000000     0.000000
   21     1.000000    90.000000     0.000000    -0.816497    -0.577350     0.000000     0.000000     0.000000
   22    -1.000000    90.000000     0.000000    -0.816497    -0.577350     0.000000     0.000000     0.000000
   23     1.000000   180.000000     0.500000     0.866025     0.000000     0.000000     0.000000     0.000000
   24    -1.000000   180.000000     0.500000     0.866025     0.000000     0.000000     0.000000     0.000000
   25     1.000000   120.000000     0.000000     0.942809    -0.333333     0.000000     0.000000     0.000000
   26    -1.000000   120.000000     0.000000     0.942809    -0.333333     0.000000     0.000000     0.000000
   27     1.000000   120.000000     0.000000     0.000000    -1.000000     0.000000     0.000000     0.000000
   28    -1.000000   120.000000     0.000000     0.000000    -1.000000     0.000000     0.000000     0.000000
   29     1.000000   180.000000     0.000000    -0.816497    -0.577350     0.000000     0.000000     0.000000
   30    -1.000000   180.000000     0.000000    -0.816497    -0.577350     0.000000     0.000000     0.000000
   31     1.000000    90.000000    -0.707107     0.408248    -0.577350     0.000000     0.000000     0.000000
   32    -1.000000    90.000000    -0.707107     0.408248    -0.577350     0.000000     0.000000     0.000000
   33     1.000000   179.999999     0.500000     0.288675     0.816497     0.000000     0.000000     0.000000
   34    -1.000000   179.999999     0.500000     0.288675     0.816497     0.000000     0.000000     0.000000
   35     1.000000    90.000000     0.000000     0.816497     0.577350     0.000000     0.000000     0.000000
   36    -1.000000    90.000000     0.000000     0.816497     0.577350     0.000000     0.000000     0.000000
   37     1.000000   120.000000    -0.816497     0.471405     0.333333     0.000000     0.000000     0.000000
   38    -1.000000   120.000000    -0.816497     0.471405     0.333333     0.000000     0.000000     0.000000
   39     1.000000   180.000000    -0.707107     0.408248    -0.577350     0.000000     0.000000     0.000000
   40    -1.000000   180.000000    -0.707107     0.408248    -0.577350     0.000000     0.000000     0.000000
   41     1.000000   120.000000     0.000000     0.000000     1.000000     0.000000     0.000000     0.000000
   42    -1.000000   120.000000     0.000000     0.000000     1.000000     0.000000     0.000000     0.000000
   43     1.000000   180.000000     0.000000    -0.577350     0.816497     0.000000     0.000000     0.000000
   44    -1.000000   180.000000     0.000000    -0.577350     0.816497     0.000000     0.000000     0.000000
   45     1.000000   180.000000    -0.500000     0.866025     0.000000     0.000000     0.000000     0.000000
   46    -1.000000   180.000000    -0.500000     0.866025     0.000000     0.000000     0.000000     0.000000
   47     1.000000   180.000000    -0.500000     0.288675     0.816497     0.000000     0.000000     0.000000
   48    -1.000000   180.000000    -0.500000     0.288675     0.816497     0.000000     0.000000     0.000000

 Subroutine IBZKPT returns following result:

 Found     60 irreducible k-points:

 Following reciprocal coordinates:
            Coordinates               Weight
  0.062500  0.062500  0.062500     96.000000
  0.187500  0.062500  0.062500    288.000000
  0.312500  0.062500  0.062500    288.000000
  0.437500  0.062500  0.062500    288.000000
 -0.437500  0.062500  0.062500    288.000000
 -0.312500  0.062500  0.062500    288.000000
 -0.187500  0.062500  0.062500    288.000000
 -0.062500  0.062500  0.062500    288.000000
  0.187500  0.187500  0.062500    288.000000
  0.312500  0.187500  0.062500    576.000000
  0.437500  0.187500  0.062500    576.000000
 -0.437500  0.187500  0.062500    576.000000
 -0.312500  0.187500  0.062500    576.000000
 -0.187500  0.187500  0.062500    576.000000
 -0.062500  0.187500  0.062500    576.000000
  0.312500  0.312500  0.062500    288.000000
  0.437500  0.312500  0.062500    576.000000
 -0.437500  0.312500  0.062500    576.000000
 -0.312500  0.312500  0.062500    576.000000
 -0.187500  0.312500  0.062500    576.000000
 -0.062500  0.312500  0.062500    576.000000
  0.437500  0.437500  0.062500    288.000000
 -0.437500  0.437500  0.062500    576.000000
 -0.312500  0.437500  0.062500    576.000000
 -0.187500  0.437500  0.062500    576.000000
 -0.062500  0.437500  0.062500    576.000000
 -0.437500 -0.437500  0.062500    288.000000
 -0.312500 -0.437500  0.062500    576.000000
 -0.187500 -0.437500  0.062500    576.000000
 -0.312500 -0.312500  0.062500    288.000000
 -0.187500 -0.312500  0.062500    576.000000
 -0.187500 -0.187500  0.062500    288.000000
  0.187500  0.187500  0.187500     96.000000
  0.312500  0.187500  0.187500    288.000000
  0.437500  0.187500  0.187500    288.000000
 -0.437500  0.187500  0.187500    288.000000
 -0.312500  0.187500  0.187500    288.000000
 -0.187500  0.187500  0.187500    288.000000
  0.312500  0.312500  0.187500    288.000000
  0.437500  0.312500  0.187500    576.000000
 -0.437500  0.312500  0.187500    576.000000
 -0.312500  0.312500  0.187500    576.000000
 -0.187500  0.312500  0.187500    576.000000
  0.437500  0.437500  0.187500    288.000000
 -0.437500  0.437500  0.187500    576.000000
 -0.312500  0.437500  0.187500    576.000000
 -0.187500  0.437500  0.187500    576.000000
 -0.437500 -0.437500  0.187500    288.000000
 -0.312500 -0.437500  0.187500    576.000000
 -0.312500 -0.312500  0.187500    288.000000
  0.312500  0.312500  0.312500     96.000000
  0.437500  0.312500  0.312500    288.000000
 -0.437500  0.312500  0.312500    288.000000
 -0.312500  0.312500  0.312500    288.000000
  0.437500  0.437500  0.312500    288.000000
 -0.437500  0.437500  0.312500    576.000000
 -0.312500  0.437500  0.312500    576.000000
 -0.437500 -0.437500  0.312500    288.000000
  0.437500  0.437500  0.437500     96.000000
 -0.437500  0.437500  0.437500    288.000000

 Following cartesian coordinates:
            Coordinates               Weight
  0.021187  0.012232  0.008650     96.000000
  0.063561 -0.012232 -0.008650    288.000000
  0.105936 -0.036697 -0.025949    288.000000
  0.148310 -0.061162 -0.043248    288.000000
 -0.148310  0.110091  0.077846    288.000000
 -0.105936  0.085627  0.060547    288.000000
 -0.063561  0.061162  0.043248    288.000000
 -0.021187  0.036697  0.025949    288.000000
  0.063561  0.036697 -0.025949    288.000000
  0.105936  0.012232 -0.043248    576.000000
  0.148310 -0.012232 -0.060547    576.000000
 -0.148310  0.159021  0.060547    576.000000
 -0.105936  0.134556  0.043248    576.000000
 -0.063561  0.110091  0.025949    576.000000
 -0.021187  0.085627  0.008650    576.000000
  0.105936  0.061162 -0.060547    288.000000
  0.148310  0.036697 -0.077846    576.000000
[...]
  -0.14830971 -0.08562665  0.19894075       0.012
  -0.10593550 -0.11009141  0.18164155       0.023
  -0.10593550 -0.06116189  0.16434236       0.012
   0.10593550  0.06116189  0.04324799       0.004
   0.14830971  0.03669714  0.02594879       0.012
  -0.14830971  0.20795043  0.14704316       0.012
  -0.10593550  0.18348568  0.12974397       0.012
   0.14830971  0.08562665  0.00864960       0.012
  -0.14830971  0.25687995  0.12974397       0.023
  -0.10593550  0.23241519  0.11244477       0.023
  -0.14830971 -0.08562665  0.25083833       0.012
   0.14830971  0.08562665  0.06054718       0.004
  -0.14830971  0.25687995  0.18164155       0.012

 k-points in reciprocal lattice and weights: KPOINTS created by Atomic Simulation Env
   0.06250000  0.06250000  0.06250000       0.004
   0.18750000  0.06250000  0.06250000       0.012
   0.31250000  0.06250000  0.06250000       0.012
   0.43750000  0.06250000  0.06250000       0.012
  -0.43750000  0.06250000  0.06250000       0.012
  -0.31250000  0.06250000  0.06250000       0.012
  -0.18750000  0.06250000  0.06250000       0.012
  -0.06250000  0.06250000  0.06250000       0.012
   0.18750000  0.18750000  0.06250000       0.012
   0.31250000  0.18750000  0.06250000       0.023
   0.43750000  0.18750000  0.06250000       0.023
  -0.43750000  0.18750000  0.06250000       0.023
  -0.31250000  0.18750000  0.06250000       0.023
  -0.18750000  0.18750000  0.06250000       0.023
  -0.06250000  0.18750000  0.06250000       0.023
   0.31250000  0.31250000  0.06250000       0.012
   0.43750000  0.31250000  0.06250000       0.023
  -0.43750000  0.31250000  0.06250000       0.023
  -0.31250000  0.31250000  0.06250000       0.023
  -0.18750000  0.31250000  0.06250000       0.023
  -0.06250000  0.31250000  0.06250000       0.023
   0.43750000  0.43750000  0.06250000       0.012
  -0.43750000  0.43750000  0.06250000       0.023
  -0.31250000  0.43750000  0.06250000       0.023
  -0.18750000  0.43750000  0.06250000       0.023
  -0.06250000  0.43750000  0.06250000       0.023
  -0.43750000 -0.43750000  0.06250000       0.012
  -0.31250000 -0.43750000  0.06250000       0.023
  -0.18750000 -0.43750000  0.06250000       0.023
  -0.31250000 -0.31250000  0.06250000       0.012
  -0.18750000 -0.31250000  0.06250000       0.023
  -0.18750000 -0.18750000  0.06250000       0.012
   0.18750000  0.18750000  0.18750000       0.004
   0.31250000  0.18750000  0.18750000       0.012
   0.43750000  0.18750000  0.18750000       0.012
  -0.43750000  0.18750000  0.18750000       0.012
  -0.31250000  0.18750000  0.18750000       0.012
  -0.18750000  0.18750000  0.18750000       0.012
   0.31250000  0.31250000  0.18750000       0.012
   0.43750000  0.31250000  0.18750000       0.023
  -0.43750000  0.31250000  0.18750000       0.023
  -0.31250000  0.31250000  0.18750000       0.023
  -0.18750000  0.31250000  0.18750000       0.023
   0.43750000  0.43750000  0.18750000       0.012
  -0.43750000  0.43750000  0.18750000       0.023
  -0.31250000  0.43750000  0.18750000       0.023
  -0.18750000  0.43750000  0.18750000       0.023
  -0.43750000 -0.43750000  0.18750000       0.012
  -0.31250000 -0.43750000  0.18750000       0.023
  -0.31250000 -0.31250000  0.18750000       0.012
   0.31250000  0.31250000  0.31250000       0.004
   0.43750000  0.31250000  0.31250000       0.012
  -0.43750000  0.31250000  0.31250000       0.012
  -0.31250000  0.31250000  0.31250000       0.012
   0.43750000  0.43750000  0.31250000       0.012
  -0.43750000  0.43750000  0.31250000       0.023
  -0.31250000  0.43750000  0.31250000       0.023
  -0.43750000 -0.43750000  0.31250000       0.012
   0.43750000  0.43750000  0.43750000       0.004
  -0.43750000  0.43750000  0.43750000       0.012

 position of ions in fractional coordinates (direct lattice)
   0.00000000  0.00000000  0.00000000

 position of ions in cartesian coordinates  (Angst):
   0.00000000  0.00000000  0.00000000

 k-point  1 :   0.0625 0.0625 0.0625  plane waves:     271
 k-point  2 :   0.1875 0.0625 0.0625  plane waves:     278
 k-point  3 :   0.3125 0.0625 0.0625  plane waves:     276
 k-point  4 :   0.4375 0.0625 0.0625  plane waves:     270
 k-point  5 :  -0.4375 0.0625 0.0625  plane waves:     267
 k-point  6 :  -0.3125 0.0625 0.0625  plane waves:     270
 k-point  7 :  -0.1875 0.0625 0.0625  plane waves:     279
 k-point  8 :  -0.0625 0.0625 0.0625  plane waves:     274
 k-point  9 :   0.1875 0.1875 0.0625  plane waves:     279
 k-point 10 :   0.3125 0.1875 0.0625  plane waves:     280
 k-point 11 :   0.4375 0.1875 0.0625  plane waves:     272
 k-point 12 :  -0.4375 0.1875 0.0625  plane waves:     264
 k-point 13 :  -0.3125 0.1875 0.0625  plane waves:     265
 k-point 14 :  -0.1875 0.1875 0.0625  plane waves:     272
 k-point 15 :  -0.0625 0.1875 0.0625  plane waves:     280
 k-point 16 :   0.3125 0.3125 0.0625  plane waves:     272
 k-point 17 :   0.4375 0.3125 0.0625  plane waves:     266
 k-point 18 :  -0.4375 0.3125 0.0625  plane waves:     264
 k-point 19 :  -0.3125 0.3125 0.0625  plane waves:     268
 k-point 20 :  -0.1875 0.3125 0.0625  plane waves:     268
 k-point 21 :  -0.0625 0.3125 0.0625  plane waves:     273
 k-point 22 :   0.4375 0.4375 0.0625  plane waves:     270
 k-point 23 :  -0.4375 0.4375 0.0625  plane waves:     268
 k-point 24 :  -0.3125 0.4375 0.0625  plane waves:     270
 k-point 25 :  -0.1875 0.4375 0.0625  plane waves:     267
 k-point 26 :  -0.0625 0.4375 0.0625  plane waves:     268
 k-point 27 :  -0.4375-0.4375 0.0625  plane waves:     264
 k-point 28 :  -0.3125-0.4375 0.0625  plane waves:     266
 k-point 29 :  -0.1875-0.4375 0.0625  plane waves:     267
 k-point 30 :  -0.3125-0.3125 0.0625  plane waves:     270
 k-point 31 :  -0.1875-0.3125 0.0625  plane waves:     275
 k-point 32 :  -0.1875-0.1875 0.0625  plane waves:     282
 k-point 33 :   0.1875 0.1875 0.1875  plane waves:     277
 k-point 34 :   0.3125 0.1875 0.1875  plane waves:     279
 k-point 35 :   0.4375 0.1875 0.1875  plane waves:     268
 k-point 36 :  -0.4375 0.1875 0.1875  plane waves:     265
 k-point 37 :  -0.3125 0.1875 0.1875  plane waves:     265
 k-point 38 :  -0.1875 0.1875 0.1875  plane waves:     275
 k-point 39 :   0.3125 0.3125 0.1875  plane waves:     275
 k-point 40 :   0.4375 0.3125 0.1875  plane waves:     272
 k-point 41 :  -0.4375 0.3125 0.1875  plane waves:     268
 k-point 42 :  -0.3125 0.3125 0.1875  plane waves:     267
 k-point 43 :  -0.1875 0.3125 0.1875  plane waves:     268
 k-point 44 :   0.4375 0.4375 0.1875  plane waves:     270
 k-point 45 :  -0.4375 0.4375 0.1875  plane waves:     265
 k-point 46 :  -0.3125 0.4375 0.1875  plane waves:     268
 k-point 47 :  -0.1875 0.4375 0.1875  plane waves:     267
 k-point 48 :  -0.4375-0.4375 0.1875  plane waves:     270
 k-point 49 :  -0.3125-0.4375 0.1875  plane waves:     266
 k-point 50 :  -0.3125-0.3125 0.1875  plane waves:     269
 k-point 51 :   0.3125 0.3125 0.3125  plane waves:     274
 k-point 52 :   0.4375 0.3125 0.3125  plane waves:     271
 k-point 53 :  -0.4375 0.3125 0.3125  plane waves:     268
 k-point 54 :  -0.3125 0.3125 0.3125  plane waves:     268
 k-point 55 :   0.4375 0.4375 0.3125  plane waves:     271
 k-point 56 :  -0.4375 0.4375 0.3125  plane waves:     266
 k-point 57 :  -0.3125 0.4375 0.3125  plane waves:     269
 k-point 58 :  -0.4375-0.4375 0.3125  plane waves:     269
 k-point 59 :   0.4375 0.4375 0.4375  plane waves:     269
 k-point 60 :  -0.4375 0.4375 0.4375  plane waves:     263

 maximum number of plane-waves:       282
 maximum index in each direction:
   IXMAX=    4   IYMAX=    4   IZMAX=    4
   IXMIN=   -4   IYMIN=   -4   IZMIN=   -4

 WARNING: aliasing errors must be expected set NGX to  18 to avoid them
 WARNING: aliasing errors must be expected set NGY to  18 to avoid them
 WARNING: aliasing errors must be expected set NGZ to  18 to avoid them
 aliasing errors are usually negligible using standard VASP settings
 and one can safely disregard these warnings

 Broyden mixing: mesh for mixing (old mesh)
   NGX =  9   NGY =  9   NGZ =  9
  (NGX  = 28   NGY  = 28   NGZ  = 28)
  gives a total of    729 points

 initial charge density was supplied:
 charge density of overlapping atoms calculated
 number of electron      11.0000000 magnetization
 keeping initial charge density in first step

 Maximum index for augmentation-charges         7155 (set IRDMAX)

 First call to EWALD:  gamma=   0.674
 Maximum number of real-space cells 3x 3x 3
 Maximum number of reciprocal cells 3x 3x 3

----------------------------------------- Iteration    1(   1)  ---------------------------------------

 eigenvalue-minimisations  :  1240
 total energy-change (2. order) : 0.2815747E+02  (-0.4503748E+03)
 number of electron      11.0000000 magnetization
 augmentation part       11.0000000 magnetization

 Free energy of the ion-electron system (eV)
  alpha Z        PSCENC =        46.86015630
  Ewald energy   TEWEN  =      -957.44589910
  -Hartree energ DENC   =      -212.21334722
  -exchange      EXHF   =         0.00000000
  -V(xc)+E(xc)   XCENC  =       -10.57686066
  PAW double counting   =      1003.46214933     -957.34927423
  entropy T*S    EENTRO =        -0.00239015
  eigenvalues    EBANDS =        78.18265636
  atomic energy  EATOM  =      1037.24027811
  free energy    TOTEN  =        28.15746874 eV

  energy without entropy =       28.15985889  energy(sigma->0) =       28.15826546

[...]

 eigenvalue-minimisations  :  1119
 total energy-change (2. order) :-0.3091813E+02  (-0.2886721E+02)
 number of electron      11.0000000 magnetization
 augmentation part       11.0000000 magnetization

[...]

 Broyden mixing:
  rms(total) = 0.44358E+00    rms(broyden)= 0.44356E+00
  rms(prec ) = 0.12169E+01
  weight for this iteration     100.00

[...]

 eigenvalues of (default mixing * dielectric matrix)
  average eigenvalue GAMMA=   1.1078
  1.1078

[...]

 eigenvalue-minimisations  :  1112
 total energy-change (2. order) : 0.2467074E-02  (-0.6456864E-04)
 number of electron      11.0000036 magnetization
 augmentation part        5.2597237 magnetization

 Broyden mixing:
  rms(total) = 0.54605E-02    rms(broyden)= 0.54596E-02
  rms(prec ) = 0.67648E-02
  weight for this iteration     100.00

 eigenvalues of (default mixing * dielectric matrix)
  average eigenvalue GAMMA=   1.4752
  2.5146  1.0578  0.8533

[...]

----------------------------------------- Iteration    1(   9)  ---------------------------------------

 eigenvalue-minimisations  :   560
 total energy-change (2. order) :-0.1018038E-04  (-0.7718502E-06)
 number of electron      11.0000036 magnetization
 augmentation part        5.2597237 magnetization

 Free energy of the ion-electron system (eV)
  alpha Z        PSCENC =        46.86015630
  Ewald energy   TEWEN  =      -957.44589910
  -Hartree energ DENC   =      -200.03327640
  -exchange      EXHF   =         0.00000000
  -V(xc)+E(xc)   XCENC  =       -11.02593928
  PAW double counting   =      1095.94531793    -1052.16078345
  entropy T*S    EENTRO =        -0.00053208
  eigenvalues    EBANDS =        37.90318338
  atomic energy  EATOM  =      1037.24027811
  free energy    TOTEN  =        -2.71749458 eV

  energy without entropy =       -2.71696250  energy(sigma->0) =       -2.71731722

 average (electrostatic) potential at core
  the test charge radii are     1.1249
  (the norm of the test charge is              1.0000)
       1 -71.4473

 E-fermi :   7.5624     XC(G=0): -11.8385     alpha+bet :-12.6456

 k-point     1 :       0.0625    0.0625    0.0625
  band No.  band energies     occupation
      1       0.3870      2.00000
      2       2.9818      2.00000
      3       3.0370      2.00000
      4       3.0370      2.00000
      5       3.9213      2.00000
      6       3.9213      2.00000
      7      23.4607      0.00000
      8      25.6557      0.00000
      9      26.6977      0.00000

[...]

 k-point    60 :      -0.4375    0.4375    0.4375
  band No.  band energies     occupation
      1       1.8170      2.00000
      2       2.8583      2.00000
      3       3.1812      2.00000
      4       4.0514      2.00000
      5       4.5746      2.00000
      6       8.2595     -0.00001
      7      11.1207      0.00000
      8      21.2518      0.00000
      9      23.5208      0.00000

 soft charge-density along one line, spin component           1
         0         1         2         3         4         5         6         7         8         9
x     5.7403    0.0000    1.0967    0.0000   -0.3014    0.0000   -0.0338    0.0000    0.0201    0.0000
x     0.0019    0.0000    0.0000    0.0000    0.0000    0.0000
y     5.7403    0.0000    1.0967    0.0000   -0.3014    0.0000   -0.0338    0.0000    0.0201    0.0000
y     0.0019    0.0000    0.0000    0.0000    0.0000    0.0000
z     5.7403    0.0000    1.0967    0.0000   -0.3014    0.0000   -0.0338    0.0000    0.0201    0.0000
z     0.0019    0.0000    0.0000    0.0000    0.0000    0.0000
 total charge-density along one line
x    11.0000    0.0000    4.7938    0.0000    0.8326    0.0000    0.0165    0.0000    0.0087    0.0000
x     0.0052    0.0000   -0.0014    0.0000    0.0006    0.0000   -0.0003    0.0000    0.0002    0.0000
x    -0.0001    0.0000    0.0000    0.0000    0.0000    0.0000    0.0000    0.0000    0.0000    0.0000
y    11.0000    0.0000    4.7938    0.0000    0.8326    0.0000    0.0165    0.0000    0.0087    0.0000
y     0.0052    0.0000   -0.0014    0.0000    0.0006    0.0000   -0.0003    0.0000    0.0002    0.0000
y    -0.0001    0.0000    0.0000    0.0000    0.0000    0.0000    0.0000    0.0000    0.0000    0.0000
z    11.0000    0.0000    4.7938    0.0000    0.8326    0.0000    0.0165    0.0000    0.0087    0.0000
z     0.0052    0.0000   -0.0014    0.0000    0.0006    0.0000   -0.0003    0.0000    0.0002    0.0000
z    -0.0001    0.0000    0.0000    0.0000    0.0000    0.0000    0.0000    0.0000    0.0000    0.0000

------------------------ aborting loop because EDIFF is reached ----------------------------------------

  FORCE on cell =-STRESS in cart. coord.  units (eV):
  Direction    XX          YY          ZZ          XY          YZ          ZX
  Alpha Z    46.86016    46.86016    46.86016
  Ewald    -319.14864  -319.14864  -319.14864     0.00000     0.00000     0.00000
  Hartree    66.67299    66.67299    66.67299     0.00000     0.00000     0.00000
  E(xc)     -58.05283   -58.05283   -58.05283     0.00000     0.00000     0.00000
  Local      44.03827    44.03810    44.03805     0.00015     0.00006     0.00011
  n-local   -10.03026    -9.13760    -8.18212    -0.65507    -0.17478     1.57502
  augment    92.10125    92.10143    92.10147    -0.00015    -0.00006    -0.00011
  Kinetic   136.72145   136.77267   135.59784    -0.15369     0.04988    -0.67753
  Fock        0.00000     0.00000     0.00000     0.00000     0.00000     0.00000
  Total      -0.28148    -0.28148    -0.28148     0.00000     0.00000     0.00000
  in kB     -24.84534   -24.84534   -24.84534     0.00000     0.00000     0.00000

 VOLUME and BASIS-vectors are now :
  energy-cutoff  :      350.00
  volume of cell :       18.15
      direct lattice vectors                 reciprocal lattice vectors
     2.949908070  0.000000000  0.000000000     0.338993615 -0.195718055 -0.138393564
     1.474954035  2.554695327  0.000000000     0.000000000  0.391436110 -0.138393564
     1.474954035  0.851565109  2.408589853     0.000000000  0.000000000  0.415180691

  length of vectors
     2.949908070  2.949908070  2.949908070     0.415180691  0.415180691  0.415180691

 FORCES acting on ions
    electron-ion (+dipol)            ewald-force                    non-local-force                 convergence-correction
   -.429E-13 -.420E-14 0.430E-14   0.714E-15 -.226E-15 0.206E-16   -.422E-22 0.125E-22 0.000E+00   -.384E-13 -.194E-13 -.121E-13
   -.429E-13 -.420E-14 0.430E-14   0.714E-15 -.226E-15 0.206E-16   -.422E-22 0.125E-22 0.000E+00   -.384E-13 -.194E-13 -.121E-13

 POSITION                                       TOTAL-FORCE (eV/Angst)
      0.00000      0.00000      0.00000         0.000000      0.000000      0.000000
    total drift:                                0.000000      0.000000      0.000000

  FREE ENERGIE OF THE ION-ELECTRON SYSTEM (eV)
  free  energy   TOTEN  =        -2.71749458 eV

  energy  without entropy=       -2.71696250  energy(sigma->0) =       -2.71731722

 stress matrix after NEB project (eV)
     -0.28148      0.00000      0.00000
      0.00000     -0.28148      0.00000
      0.00000      0.00000     -0.28148
  FORCES: max atom, RMS     0.000000    0.000000
  FORCE total and by dimension    0.000000    0.000000
  Stress total and by dimension    0.487535    0.281478

 reached required accuracy - stopping structural energy minimisation
 writing wavefunctions