 vasp.5.3.5 31Mar14 (build Jan 09 2015 16:57:47) complex

 INCAR:
 POTCAR:    PAW_PBE Pd 04Jan2005
 POTCAR:    PAW_PBE Pd 04Jan2005
   VRHFIN =Pd : s1 d9

   TITEL  = PAW_PBE Pd 04Jan2005
   POMASS =  106.420; ZVAL   =   10.000    mass and valenz
   ENMAX  =  250.925; ENMIN  =  188.194 eV

  PAW_PBE Pd 04Jan2005                  :

 POSCAR: Pd
  positions in cartesian coordinates
 exchange correlation table for  LEXCH =        8
   RHO(1)=    0.500       N(1)  =     2000
   RHO(2)=  100.500       N(2)  =     4000

 VTST: version 3.1, (03/28/14)

 CHAIN: initializing optimizer

 OPT: Using VASP Conjugate-Gradient optimizer
 CHAIN: Read ICHAIN            0

 POSCAR: Pd
  positions in cartesian coordinates

 ion  position               nearest neighbor table
   1  0.000  0.000  0.000-

  LATTYP: Found a face centered cubic cell.
 ALAT       =     3.6566000000

  Lattice vectors:

 A1 = (   2.5856066561,   0.0000000000,   0.0000000000)
 A2 = (   1.2928033280,   2.2392010484,   0.0000000000)
 A3 = (   1.2928033280,   0.7464003495,   2.1111389943)

Analysis of symmetry for initial positions (statically):
 Subroutine PRICEL returns:
 Original cell was already a primitive cell.

 Routine SETGRP: Setting up the symmetry group for a
 face centered cubic supercell.

 Subroutine GETGRP returns: Found 48 space group operations
 (whereof 48 operations were pure point group operations)
 out of a pool of 48 trial point group operations.

The static configuration has the point symmetry O_h .

Analysis of symmetry for dynamics (positions and initial velocities):
 Subroutine PRICEL returns:
 Original cell was already a primitive cell.

 Routine SETGRP: Setting up the symmetry group for a
 face centered cubic supercell.

 Subroutine GETGRP returns: Found 48 space group operations
 (whereof 48 operations were pure point group operations)
 out of a pool of 48 trial point group operations.

The dynamic configuration has the point symmetry O_h .

 KPOINTS: KPOINTS created by Atomic Simulation Env

Automatic generation of k-mesh.
Space group operators:
 irot       det(A)        alpha          n_x          n_y          n_z        tau_x        tau_y        tau_z
    1     1.000000     0.000000     1.000000     0.000000     0.000000     0.000000     0.000000     0.000000
    2    -1.000000     0.000000     1.000000     0.000000     0.000000     0.000000     0.000000     0.000000
    3     1.000000   120.000000    -0.816497    -0.471405    -0.333333     0.000000     0.000000     0.000000
    4    -1.000000   120.000000    -0.816497    -0.471405    -0.333333     0.000000     0.000000     0.000000
    5     1.000000   120.000000     0.816497     0.471405     0.333333     0.000000     0.000000     0.000000
    6    -1.000000   120.000000     0.816497     0.471405     0.333333     0.000000     0.000000     0.000000
    7     1.000000    90.000000    -0.707107    -0.408248     0.577350     0.000000     0.000000     0.000000
    8    -1.000000    90.000000    -0.707107    -0.408248     0.577350     0.000000     0.000000     0.000000
    9     1.000000   180.000000     1.000000     0.000000     0.000000     0.000000     0.000000     0.000000
   10    -1.000000   180.000000     1.000000     0.000000     0.000000     0.000000     0.000000     0.000000
   11     1.000000    90.000000     0.707107    -0.408248     0.577350     0.000000     0.000000     0.000000
   12    -1.000000    90.000000     0.707107    -0.408248     0.577350     0.000000     0.000000     0.000000
   13     1.000000   180.000000    -0.707107    -0.408248     0.577350     0.000000     0.000000     0.000000
   14    -1.000000   180.000000    -0.707107    -0.408248     0.577350     0.000000     0.000000     0.000000
   15     1.000000   120.000000     0.816497    -0.471405    -0.333333     0.000000     0.000000     0.000000
   16    -1.000000   120.000000     0.816497    -0.471405    -0.333333     0.000000     0.000000     0.000000
   17     1.000000   120.000000     0.000000    -0.942809     0.333333     0.000000     0.000000     0.000000
   18    -1.000000   120.000000     0.000000    -0.942809     0.333333     0.000000     0.000000     0.000000
   19     1.000000    90.000000     0.707107     0.408248    -0.577350     0.000000     0.000000     0.000000
   20    -1.000000    90.000000     0.707107     0.408248    -0.577350     0.000000     0.000000     0.000000
   21     1.000000    90.000000     0.000000    -0.816497    -0.577350     0.000000     0.000000     0.000000
   22    -1.000000    90.000000     0.000000    -0.816497    -0.577350     0.000000     0.000000     0.000000
   23     1.000000   180.000000     0.500000     0.866025     0.000000     0.000000     0.000000     0.000000
   24    -1.000000   180.000000     0.500000     0.866025     0.000000     0.000000     0.000000     0.000000
   25     1.000000   120.000000     0.000000     0.942809    -0.333333     0.000000     0.000000     0.000000
   26    -1.000000   120.000000     0.000000     0.942809    -0.333333     0.000000     0.000000     0.000000
   27     1.000000   120.000000     0.000000     0.000000    -1.000000     0.000000     0.000000     0.000000
   28    -1.000000   120.000000     0.000000     0.000000    -1.000000     0.000000     0.000000     0.000000
   29     1.000000   180.000000     0.000000    -0.816497    -0.577350     0.000000     0.000000     0.000000
   30    -1.000000   180.000000     0.000000    -0.816497    -0.577350     0.000000     0.000000     0.000000
   31     1.000000    90.000000    -0.707107     0.408248    -0.577350     0.000000     0.000000     0.000000
   32    -1.000000    90.000000    -0.707107     0.408248    -0.577350     0.000000     0.000000     0.000000
   33     1.000000   179.999999     0.500000     0.288675     0.816497     0.000000     0.000000     0.000000
   34    -1.000000   179.999999     0.500000     0.288675     0.816497     0.000000     0.000000     0.000000
   35     1.000000    90.000000     0.000000     0.816497     0.577350     0.000000     0.000000     0.000000
   36    -1.000000    90.000000     0.000000     0.816497     0.577350     0.000000     0.000000     0.000000
   37     1.000000   120.000000    -0.816497     0.471405     0.333333     0.000000     0.000000     0.000000
   38    -1.000000   120.000000    -0.816497     0.471405     0.333333     0.000000     0.000000     0.000000
   39     1.000000   180.000000    -0.707107     0.408248    -0.577350     0.000000     0.000000     0.000000
   40    -1.000000   180.000000    -0.707107     0.408248    -0.577350     0.000000     0.000000     0.000000
   41     1.000000   120.000000     0.000000     0.000000     1.000000     0.000000     0.000000     0.000000
   42    -1.000000   120.000000     0.000000     0.000000     1.000000     0.000000     0.000000     0.000000
   43     1.000000   180.000000     0.000000    -0.577350     0.816497     0.000000     0.000000     0.000000
   44    -1.000000   180.000000     0.000000    -0.577350     0.816497     0.000000     0.000000     0.000000
   45     1.000000   180.000000    -0.500000     0.866025     0.000000     0.000000     0.000000     0.000000
   46    -1.000000   180.000000    -0.500000     0.866025     0.000000     0.000000     0.000000     0.000000
   47     1.000000   179.999999    -0.500000     0.288675     0.816497     0.000000     0.000000     0.000000
   48    -1.000000   179.999999    -0.500000     0.288675     0.816497     0.000000     0.000000     0.000000

 Subroutine IBZKPT returns following result:

 Found     60 irreducible k-points:

 Following reciprocal coordinates:
            Coordinates               Weight
  0.062500  0.062500  0.062500     96.000000
  0.187500  0.062500  0.062500    288.000000
  0.312500  0.062500  0.062500    288.000000
  0.437500  0.062500  0.062500    288.000000
 -0.437500  0.062500  0.062500    288.000000
 -0.312500  0.062500  0.062500    288.000000
 -0.187500  0.062500  0.062500    288.000000
 -0.062500  0.062500  0.062500    288.000000
  0.187500  0.187500  0.062500    288.000000
  0.312500  0.187500  0.062500    576.000000
  0.437500  0.187500  0.062500    576.000000
 -0.437500  0.187500  0.062500    576.000000
 -0.312500  0.187500  0.062500    576.000000
 -0.187500  0.187500  0.062500    576.000000
 -0.062500  0.187500  0.062500    576.000000
  0.312500  0.312500  0.062500    288.000000
  0.437500  0.312500  0.062500    576.000000
 -0.437500  0.312500  0.062500    576.000000
 -0.312500  0.312500  0.062500    576.000000
 -0.187500  0.312500  0.062500    576.000000
 -0.062500  0.312500  0.062500    576.000000
  0.437500  0.437500  0.062500    288.000000
 -0.437500  0.437500  0.062500    576.000000
 -0.312500  0.437500  0.062500    576.000000
 -0.187500  0.437500  0.062500    576.000000
 -0.062500  0.437500  0.062500    576.000000
 -0.437500 -0.437500  0.062500    288.000000
 -0.312500 -0.437500  0.062500    576.000000
 -0.187500 -0.437500  0.062500    576.000000
 -0.312500 -0.312500  0.062500    288.000000
 -0.187500 -0.312500  0.062500    576.000000
 -0.187500 -0.187500  0.062500    288.000000
  0.187500  0.187500  0.187500     96.000000
  0.312500  0.187500  0.187500    288.000000
  0.437500  0.187500  0.187500    288.000000
 -0.437500  0.187500  0.187500    288.000000
 -0.312500  0.187500  0.187500    288.000000
 -0.187500  0.187500  0.187500    288.000000
  0.312500  0.312500  0.187500    288.000000
  0.437500  0.312500  0.187500    576.000000
 -0.437500  0.312500  0.187500    576.000000
 -0.312500  0.312500  0.187500    576.000000
 -0.187500  0.312500  0.187500    576.000000
  0.437500  0.437500  0.187500    288.000000
 -0.437500  0.437500  0.187500    576.000000
 -0.312500  0.437500  0.187500    576.000000
 -0.187500  0.437500  0.187500    576.000000
 -0.437500 -0.437500  0.187500    288.000000
 -0.312500 -0.437500  0.187500    576.000000
 -0.312500 -0.312500  0.187500    288.000000
  0.312500  0.312500  0.312500     96.000000
  0.437500  0.312500  0.312500    288.000000
 -0.437500  0.312500  0.312500    288.000000
 -0.312500  0.312500  0.312500    288.000000
  0.437500  0.437500  0.312500    288.000000
 -0.437500  0.437500  0.312500    576.000000
 -0.312500  0.437500  0.312500    576.000000
 -0.437500 -0.437500  0.312500    288.000000
  0.437500  0.437500  0.437500     96.000000
 -0.437500  0.437500  0.437500    288.000000

 Following cartesian coordinates:
            Coordinates               Weight
  0.024172  0.013956  0.009868     96.000000
  0.072517 -0.013956 -0.009868    288.000000
  0.120861 -0.041868 -0.029605    288.000000
  0.169206 -0.069779 -0.049341    288.000000
 -0.169206  0.125603  0.088815    288.000000
 -0.120861  0.097691  0.069078    288.000000
 -0.072517  0.069779  0.049341    288.000000
 -0.024172  0.041868  0.029605    288.000000
  0.072517  0.041868 -0.029605    288.000000
  0.120861  0.013956 -0.049341    576.000000
  0.169206 -0.013956 -0.069078    576.000000
 -0.169206  0.181426  0.069078    576.000000
 -0.120861  0.153515  0.049341    576.000000
 -0.072517  0.125603  0.029605    576.000000
 -0.024172  0.097691  0.009868    576.000000
  0.120861  0.069779 -0.069078    288.000000
  0.169206  0.041868 -0.088815    576.000000
[...]
   0.16920594  0.09769109 -0.04934145       0.012
  -0.16920594  0.29307328  0.08881462       0.023
  -0.12086138  0.26516154  0.06907803       0.023
  -0.07251683  0.23724980  0.04934145       0.023
  -0.16920594 -0.09769109  0.22697069       0.012
  -0.12086138 -0.12560284  0.20723410       0.023
  -0.12086138 -0.06977935  0.18749752       0.012
   0.12086138  0.06977935  0.04934145       0.004
   0.16920594  0.04186761  0.02960487       0.012
  -0.16920594  0.23724980  0.16776094       0.012
  -0.12086138  0.20933806  0.14802436       0.012
   0.16920594  0.09769109  0.00986829       0.012
  -0.16920594  0.29307328  0.14802436       0.023
  -0.12086138  0.26516154  0.12828778       0.023
  -0.16920594 -0.09769109  0.28618043       0.012
   0.16920594  0.09769109  0.06907803       0.004
  -0.16920594  0.29307328  0.20723410       0.012

 k-points in reciprocal lattice and weights: KPOINTS created by Atomic Simulation Env
   0.06250000  0.06250000  0.06250000       0.004
   0.18750000  0.06250000  0.06250000       0.012
   0.31250000  0.06250000  0.06250000       0.012
   0.43750000  0.06250000  0.06250000       0.012
  -0.43750000  0.06250000  0.06250000       0.012
  -0.31250000  0.06250000  0.06250000       0.012
  -0.18750000  0.06250000  0.06250000       0.012
  -0.06250000  0.06250000  0.06250000       0.012
   0.18750000  0.18750000  0.06250000       0.012
   0.31250000  0.18750000  0.06250000       0.023
   0.43750000  0.18750000  0.06250000       0.023
  -0.43750000  0.18750000  0.06250000       0.023
  -0.31250000  0.18750000  0.06250000       0.023
  -0.18750000  0.18750000  0.06250000       0.023
  -0.06250000  0.18750000  0.06250000       0.023
   0.31250000  0.31250000  0.06250000       0.012
   0.43750000  0.31250000  0.06250000       0.023
  -0.43750000  0.31250000  0.06250000       0.023
  -0.31250000  0.31250000  0.06250000       0.023
  -0.18750000  0.31250000  0.06250000       0.023
  -0.06250000  0.31250000  0.06250000       0.023
   0.43750000  0.43750000  0.06250000       0.012
  -0.43750000  0.43750000  0.06250000       0.023
  -0.31250000  0.43750000  0.06250000       0.023
  -0.18750000  0.43750000  0.06250000       0.023
  -0.06250000  0.43750000  0.06250000       0.023
  -0.43750000 -0.43750000  0.06250000       0.012
  -0.31250000 -0.43750000  0.06250000       0.023
  -0.18750000 -0.43750000  0.06250000       0.023
  -0.31250000 -0.31250000  0.06250000       0.012
  -0.18750000 -0.31250000  0.06250000       0.023
  -0.18750000 -0.18750000  0.06250000       0.012
   0.18750000  0.18750000  0.18750000       0.004
   0.31250000  0.18750000  0.18750000       0.012
   0.43750000  0.18750000  0.18750000       0.012
  -0.43750000  0.18750000  0.18750000       0.012
  -0.31250000  0.18750000  0.18750000       0.012
  -0.18750000  0.18750000  0.18750000       0.012
   0.31250000  0.31250000  0.18750000       0.012
   0.43750000  0.31250000  0.18750000       0.023
  -0.43750000  0.31250000  0.18750000       0.023
  -0.31250000  0.31250000  0.18750000       0.023
  -0.18750000  0.31250000  0.18750000       0.023
   0.43750000  0.43750000  0.18750000       0.012
  -0.43750000  0.43750000  0.18750000       0.023
  -0.31250000  0.43750000  0.18750000       0.023
  -0.18750000  0.43750000  0.18750000       0.023
  -0.43750000 -0.43750000  0.18750000       0.012
  -0.31250000 -0.43750000  0.18750000       0.023
  -0.31250000 -0.31250000  0.18750000       0.012
   0.31250000  0.31250000  0.31250000       0.004
   0.43750000  0.31250000  0.31250000       0.012
  -0.43750000  0.31250000  0.31250000       0.012
  -0.31250000  0.31250000  0.31250000       0.012
   0.43750000  0.43750000  0.31250000       0.012
  -0.43750000  0.43750000  0.31250000       0.023
  -0.31250000  0.43750000  0.31250000       0.023
  -0.43750000 -0.43750000  0.31250000       0.012
   0.43750000  0.43750000  0.43750000       0.004
  -0.43750000  0.43750000  0.43750000       0.012

 position of ions in fractional coordinates (direct lattice)
   0.00000000  0.00000000  0.00000000

 position of ions in cartesian coordinates  (Angst):
   0.00000000  0.00000000  0.00000000

 k-point  1 :   0.0625 0.0625 0.0625  plane waves:     172
 k-point  2 :   0.1875 0.0625 0.0625  plane waves:     174
 k-point  3 :   0.3125 0.0625 0.0625  plane waves:     180
 k-point  4 :   0.4375 0.0625 0.0625  plane waves:     180
 k-point  5 :  -0.4375 0.0625 0.0625  plane waves:     176
 k-point  6 :  -0.3125 0.0625 0.0625  plane waves:     179
 k-point  7 :  -0.1875 0.0625 0.0625  plane waves:     175
 k-point  8 :  -0.0625 0.0625 0.0625  plane waves:     174
 k-point  9 :   0.1875 0.1875 0.0625  plane waves:     174
 k-point 10 :   0.3125 0.1875 0.0625  plane waves:     179
 k-point 11 :   0.4375 0.1875 0.0625  plane waves:     182
 k-point 12 :  -0.4375 0.1875 0.0625  plane waves:     179
 k-point 13 :  -0.3125 0.1875 0.0625  plane waves:     178
 k-point 14 :  -0.1875 0.1875 0.0625  plane waves:     178
 k-point 15 :  -0.0625 0.1875 0.0625  plane waves:     175
 k-point 16 :   0.3125 0.3125 0.0625  plane waves:     179
 k-point 17 :   0.4375 0.3125 0.0625  plane waves:     184
 k-point 18 :  -0.4375 0.3125 0.0625  plane waves:     184
 k-point 19 :  -0.3125 0.3125 0.0625  plane waves:     181
 k-point 20 :  -0.1875 0.3125 0.0625  plane waves:     182
 k-point 21 :  -0.0625 0.3125 0.0625  plane waves:     182
 k-point 22 :   0.4375 0.4375 0.0625  plane waves:     185
 k-point 23 :  -0.4375 0.4375 0.0625  plane waves:     185
 k-point 24 :  -0.3125 0.4375 0.0625  plane waves:     183
 k-point 25 :  -0.1875 0.4375 0.0625  plane waves:     180
 k-point 26 :  -0.0625 0.4375 0.0625  plane waves:     179
 k-point 27 :  -0.4375-0.4375 0.0625  plane waves:     190
 k-point 28 :  -0.3125-0.4375 0.0625  plane waves:     185
 k-point 29 :  -0.1875-0.4375 0.0625  plane waves:     185
 k-point 30 :  -0.3125-0.3125 0.0625  plane waves:     183
 k-point 31 :  -0.1875-0.3125 0.0625  plane waves:     183
 k-point 32 :  -0.1875-0.1875 0.0625  plane waves:     176
 k-point 33 :   0.1875 0.1875 0.1875  plane waves:     172
 k-point 34 :   0.3125 0.1875 0.1875  plane waves:     180
 k-point 35 :   0.4375 0.1875 0.1875  plane waves:     180
 k-point 36 :  -0.4375 0.1875 0.1875  plane waves:     179
 k-point 37 :  -0.3125 0.1875 0.1875  plane waves:     178
 k-point 38 :  -0.1875 0.1875 0.1875  plane waves:     182
 k-point 39 :   0.3125 0.3125 0.1875  plane waves:     179
 k-point 40 :   0.4375 0.3125 0.1875  plane waves:     181
 k-point 41 :  -0.4375 0.3125 0.1875  plane waves:     184
 k-point 42 :  -0.3125 0.3125 0.1875  plane waves:     185
 k-point 43 :  -0.1875 0.3125 0.1875  plane waves:     185
 k-point 44 :   0.4375 0.4375 0.1875  plane waves:     182
 k-point 45 :  -0.4375 0.4375 0.1875  plane waves:     187
 k-point 46 :  -0.3125 0.4375 0.1875  plane waves:     188
 k-point 47 :  -0.1875 0.4375 0.1875  plane waves:     187
 k-point 48 :  -0.4375-0.4375 0.1875  plane waves:     185
 k-point 49 :  -0.3125-0.4375 0.1875  plane waves:     186
 k-point 50 :  -0.3125-0.3125 0.1875  plane waves:     186
 k-point 51 :   0.3125 0.3125 0.3125  plane waves:     183
 k-point 52 :   0.4375 0.3125 0.3125  plane waves:     180
 k-point 53 :  -0.4375 0.3125 0.3125  plane waves:     180
 k-point 54 :  -0.3125 0.3125 0.3125  plane waves:     185
 k-point 55 :   0.4375 0.4375 0.3125  plane waves:     180
 k-point 56 :  -0.4375 0.4375 0.3125  plane waves:     184
 k-point 57 :  -0.3125 0.4375 0.3125  plane waves:     185
 k-point 58 :  -0.4375-0.4375 0.3125  plane waves:     180
 k-point 59 :   0.4375 0.4375 0.4375  plane waves:     174
 k-point 60 :  -0.4375 0.4375 0.4375  plane waves:     180

 maximum number of plane-waves:       190
 maximum index in each direction:
   IXMAX=    4   IYMAX=    4   IZMAX=    3
   IXMIN=   -4   IYMIN=   -4   IZMIN=   -4

 WARNING: aliasing errors must be expected set NGX to  18 to avoid them
 WARNING: aliasing errors must be expected set NGY to  18 to avoid them
 WARNING: aliasing errors must be expected set NGZ to  16 to avoid them
 aliasing errors are usually negligible using standard VASP settings
 and one can safely disregard these warnings

 Broyden mixing: mesh for mixing (old mesh)
   NGX =  7   NGY =  7   NGZ =  7
  (NGX  = 24   NGY  = 24   NGZ  = 24)
  gives a total of    343 points

 initial charge density was supplied:
 charge density of overlapping atoms calculated
 number of electron      10.0000000 magnetization
 keeping initial charge density in first step

 Maximum index for augmentation-charges         6699 (set IRDMAX)

 First call to EWALD:  gamma=   0.769
 Maximum number of real-space cells 3x 3x 3
 Maximum number of reciprocal cells 3x 3x 3

----------------------------------------- Iteration    1(   1)  ---------------------------------------

 eigenvalue-minimisations  :  1112
 total energy-change (2. order) : 0.2648165E+02  (-0.4256243E+03)
 number of electron      10.0000000 magnetization
 augmentation part       10.0000000 magnetization

 Free energy of the ion-electron system (eV)
  alpha Z        PSCENC =        53.32245860
  Ewald energy   TEWEN  =      -902.76538379
  -Hartree energ DENC   =      -102.91621739
  -exchange      EXHF   =         0.00000000
  -V(xc)+E(xc)   XCENC  =       -28.41041720
  PAW double counting   =       806.73831454     -744.51602449
  entropy T*S    EENTRO =         0.00136348
  eigenvalues    EBANDS =       135.30143179
  atomic energy  EATOM  =       809.72612850
  free energy    TOTEN  =        26.48165404 eV

  energy without entropy =       26.48029056  energy(sigma->0) =       26.48119955

[...]

 eigenvalue-minimisations  :  1162
 total energy-change (2. order) :-0.3124664E+02  (-0.3049795E+02)
 number of electron      10.0000000 magnetization
 augmentation part       10.0000000 magnetization

[...]

 eigenvalue-minimisations  :  1316
 total energy-change (2. order) :-0.7502645E-05  (-0.7501419E-05)
 number of electron       9.9999950 magnetization
 augmentation part        3.9832689 magnetization

 Broyden mixing:
  rms(total) = 0.13520E+01    rms(broyden)= 0.13520E+01
  rms(prec ) = 0.19518E+01
  weight for this iteration     100.00

[...]

 eigenvalues of (default mixing * dielectric matrix)
  average eigenvalue GAMMA=   1.9759
  1.9759

[...]

 Broyden mixing:
  rms(total) = 0.14764E-01    rms(broyden)= 0.14764E-01
  rms(prec ) = 0.15648E-01
  weight for this iteration     100.00

 eigenvalues of (default mixing * dielectric matrix)
  average eigenvalue GAMMA=   1.5382
  2.5056  0.9225  1.1867

[...]

----------------------------------------- Iteration    1(   9)  ---------------------------------------

 eigenvalue-minimisations  :   701
 total energy-change (2. order) : 0.1117659E-04  (-0.9925776E-06)
 number of electron       9.9999948 magnetization
 augmentation part        4.1581743 magnetization

 Free energy of the ion-electron system (eV)
  alpha Z        PSCENC =        53.32245860
  Ewald energy   TEWEN  =      -902.76538379
  -Hartree energ DENC   =       -92.40552150
  -exchange      EXHF   =         0.00000000
  -V(xc)+E(xc)   XCENC  =       -28.67149430
  PAW double counting   =      1118.11986310    -1060.34423219
  entropy T*S    EENTRO =        -0.00330613
  eigenvalues    EBANDS =        98.33637438
  atomic energy  EATOM  =       809.72612850
  free energy    TOTEN  =        -4.68511333 eV

  energy without entropy =       -4.68180720  energy(sigma->0) =       -4.68401129

 average (electrostatic) potential at core
  the test charge radii are     1.1199
  (the norm of the test charge is              1.0000)
       1 -67.5348

 E-fermi :  13.3527     XC(G=0): -14.3935     alpha+bet :-20.1464

 k-point     1 :       0.0625    0.0625    0.0625
  band No.  band energies     occupation
      1       4.7924      2.00000
      2       9.4310      2.00000
      3       9.5676      2.00000
      4       9.5676      2.00000
      5      11.6570      2.00000
      6      11.6570      2.00000
      7      30.6401      0.00000
      8      35.3419      0.00000
      9      36.5332      0.00000

[...]

 k-point    60 :      -0.4375    0.4375    0.4375
  band No.  band energies     occupation
      1       6.8356      2.00000
      2       9.0370      2.00000
      3       9.8306      2.00000
      4      11.2923      2.00000
      5      13.1443      2.05796
      6      16.4674      0.00000
      7      22.3861      0.00000
      8      30.4272      0.00000
      9      34.2275      0.00000

 soft charge-density along one line, spin component           1
         0         1         2         3         4         5         6         7         8         9
x     5.8418    0.0000    0.5566    0.0000   -0.2360    0.0000    0.0159    0.0000    0.0061    0.0000
x     0.0000    0.0000    0.0000    0.0000
y     5.8418    0.0000    0.5566    0.0000   -0.2360    0.0000    0.0159    0.0000    0.0061    0.0000
y     0.0000    0.0000    0.0000    0.0000
z     5.8418    0.0000    0.5566    0.0000   -0.2360    0.0000    0.0159    0.0000    0.0061    0.0000
z     0.0000    0.0000    0.0000    0.0000
 total charge-density along one line
x    10.0000    0.0000    3.1854    0.0000    0.2851    0.0000   -0.0096    0.0000    0.0079    0.0000
x    -0.0010    0.0000    0.0005    0.0000   -0.0002    0.0000    0.0001    0.0000   -0.0001    0.0000
x     0.0000    0.0000    0.0000    0.0000    0.0000    0.0000
y    10.0000    0.0000    3.1854    0.0000    0.2851    0.0000   -0.0096    0.0000    0.0079    0.0000
y    -0.0010    0.0000    0.0005    0.0000   -0.0002    0.0000    0.0001    0.0000   -0.0001    0.0000
y     0.0000    0.0000    0.0000    0.0000    0.0000    0.0000
z    10.0000    0.0000    3.1854    0.0000    0.2851    0.0000   -0.0096    0.0000    0.0079    0.0000
z    -0.0010    0.0000    0.0005    0.0000   -0.0002    0.0000    0.0001    0.0000   -0.0001    0.0000
z     0.0000    0.0000    0.0000    0.0000    0.0000    0.0000

------------------------ aborting loop because EDIFF is reached ----------------------------------------

  FORCE on cell =-STRESS in cart. coord.  units (eV):
  Direction    XX          YY          ZZ          XY          YZ          ZX
  Alpha Z    53.32246    53.32246    53.32246
  Ewald    -300.92180  -300.92180  -300.92180     0.00000     0.00000     0.00000
  Hartree    30.81040    30.81040    30.81040     0.00000     0.00000     0.00000
  E(xc)     -53.52895   -53.52897   -53.52898     0.00002     0.00001     0.00001
  Local      59.62501    59.62481    59.62476     0.00018     0.00007     0.00013
  n-local     0.96399     2.89108     7.61875     0.38450    -0.48236     3.18337
  augment    73.69417    73.69430    73.69433    -0.00011    -0.00004    -0.00008
  Kinetic   136.70397   137.11057   141.27473     0.57423    -0.93634     2.59169
  Fock        0.00000     0.00000     0.00000     0.00000     0.00000     0.00000
  Total       5.18890     5.18890     5.18890     0.00000     0.00000     0.00000
  in kB     680.16389   680.16389   680.16389     0.00000     0.00000     0.00000

 VOLUME and BASIS-vectors are now :
  energy-cutoff  :      350.00
  volume of cell :       12.22
      direct lattice vectors                 reciprocal lattice vectors
     2.585606656  0.000000000  0.000000000     0.386756430 -0.223293929 -0.157892651
     1.292803328  2.239201048  0.000000000     0.000000000  0.446587858 -0.157892651
     1.292803328  0.746400349  2.111138994     0.000000000  0.000000000  0.473677954

  length of vectors
     2.585606656  2.585606656  2.585606656     0.473677954  0.473677954  0.473677954

 FORCES acting on ions
    electron-ion (+dipol)            ewald-force                    non-local-force                 convergence-correction
   -.480E-13 -.375E-14 -.968E-14   -.193E-14 -.909E-15 -.696E-15   -.926E-22 -.662E-23 0.000E+00   -.320E-13 -.354E-13 -.169E-13
   -.480E-13 -.375E-14 -.968E-14   -.193E-14 -.909E-15 -.696E-15   -.926E-22 -.662E-23 0.000E+00   -.320E-13 -.354E-13 -.169E-13

 POSITION                                       TOTAL-FORCE (eV/Angst)
      0.00000      0.00000      0.00000         0.000000      0.000000      0.000000
    total drift:                                0.000000      0.000000      0.000000

  FREE ENERGIE OF THE ION-ELECTRON SYSTEM (eV)
  free  energy   TOTEN  =        -4.68511333 eV

  energy  without entropy=       -4.68180720  energy(sigma->0) =       -4.68401129

 stress matrix after NEB project (eV)
      5.18890      0.00000      0.00000
      0.00000      5.18890      0.00000
      0.00000      0.00000      5.18890
  FORCES: max atom, RMS     0.000000    0.000000
  FORCE total and by dimension    0.000000    0.000000
  Stress total and by dimension    8.987440    5.188901

 reached required accuracy - stopping structural energy minimisation
 writing wavefunctions